M+/Instances/S2-5-M+/S2-10-5-2-s-M+.txt
     200       5    0.10
       2       2       3       2       3      11       8      14       3      12       1
       3       2       2       1       1       6       5       8       2       0       1
       2       3       2       1       3      11       6      16      15      13       1
       3       1       1       3       1       1       4      10       3       1       1
       1       3       1       1       3      12      13       3      13      16       1
       2       2       1       3       1       9       5       2      15       2       1
       2       1       3       3       3      14      12       4      15       8       1
       1       1       1       1       1      12       5       0       1       4       1
       1       3       2       3       1      11       3       6       5       1       1
       1       2       1       1       2       6      12       7      16       5       1
       3       2       3       3       3       3       6       9      10       0       1
       3       3       1       3       3       0       2      14      16      11       1
       3       3       2       2       1       1      14       5      16      13       1
       3       1       3       3       3      12       7      12       4      13       1
       1       3       3       3       3      13       1       1       1      15       1
       3       1       1       2       2       7       5      15       4       8       1
       3       1       2       2       1      15       6      15       0      12       1
       1       2       1       1       1       8       5      13      14      15       1
       3       3       2       3       3       9      15      16      16       9       1
       3       1       2       3       2       5       0      11       3       1       1
       2       1       2       3       1       2      16      13      12       0       1
       3       1       2       1       3       6       7       1       5       6       1
       3       2       1       1       2       0      16      10       2      14       1
       2       2       2       3       2      15      12      11      16      16       1
       3       2       3       2       3      12       5       5      10       4       1
       1       3       3       3       2      14       2       4      13       9       1
       2       1       1       2       3      16       4       9       2      11       1
       1       1       1       1       2      13      11      16      12      16       1
       3       1       2       2       3      11      13       9      11      15       1
       2       3       2       3       2      12      10       9      12       3       1
       1       3       2       3       2      11      11       1       1       5       1
       3       1       2       1       1       7      11       8       2      14       1
       3       1       2       2       2       4       3       4      16       8       1
       1       1       3       1       1      14       7       7      12       3       1
       1       3       1       2       1      10      13       8       3       8       1
       1       3       1       1       2       2       7       1       7      13       1
       2       1       1       2       2       5       5       4       2       3       1
       1       3       2       2       1      10       2      11      14       6       1
       2       3       2       1       1      15      13      13       8       0       1
       1       3       3       3       2      12       4      10       4       4       1
       3       2       2       3       3       5      15      12       2       6       1
       3       3       3       2       1       9       4       6      15      16       1
       1       1       2       3       3       4      14       1      16      14       1
       2       2       2       3       3       6       8      14       5      14       1
       3       2       1       3       1       3       7       3      10       1       1
       3       3       3       1       1      11       6       2       9      14       1
       2       2       1       1       1      14       7      10      16       6       1
       3       1       3       2       3       6       6       3       7       6       1
       2       3       3       1       1       0       3       2      14       9       1
       1       1       1       3       1      16       8      13      12       7       1
       2       3       3       1       2       0       2      12       9       4       1
       2       2       1       2       2      11       4      13       9      16       1
       1       3       2       2       1      16      15      16      15      12       1
       2       3       2       3       1       0      13      10       1       1       1
       3       3       1       2       2      15       7       7       8       8       1
       2       3       2       1       2       3       3       3       2       9       1
       2       1       3       1       2      14      15      15       9       0       1
       3       2       3       3       3      13       5       6      12      14       1
       1       1       1       3       1      13       8       6       8       3       1
       3       1       1       3       1      16       8       9      10       0       1
       1       1       2       2       2       3       1       0       8       9       1
       2       3       2       2       1      16      10       0      14       1       1
       1       2       2       2       1      11       7       0       9      16       1
       3       3       3       2       2       8       9       5      13      14       1
       3       3       3       2       3       1       7       1      13      13       1
       2       3       3       3       2       7       8       8       5      13       1
       1       3       1       3       1      14       7      16      14       6       1
       2       1       3       2       2       2      16       7      15      13       1
       1       3       1       3       3      16      10      16      15       7       1
       3       1       3       1       3      10       9      15       4      10       1
       2       2       3       1       1      16       6       3      15       9       1
       2       2       1       1       3       3      11      13       5       2       1
       1       3       1       3       3       7       1       7       3       7       1
       1       2       1       2       1      16      11       5      15       1       1
       1       1       1       2       3       3       3      10       1       3       1
       3       3       1       3       3       9       9       0       0      16       1
       2       2       3       2       1      14       0      11      12      10       1
       2       2       1       3       3      10      12       2       1       2       1
       2       3       1       1       2       3      11      15       7      12       1
       2       2       3       2       2       0      14      12      13      14       1
       2       2       1       2       1      11       2       3       2      14       1
       2       3       2       3       1       1       9       6      12      12       1
       2       2       3       1       2       3      11       7       8       6       1
       3       1       2       1       2      16      13      12       2       1       1
       3       2       3       2       2       9      15      14      10       3       1
       1       2       1       3       2       3       0       8       1       7       1
       1       1       3       2       2      16      13      13       9      12       1
       2       1       1       2       3       0       4       5      16       0       1
       3       1       3       1       1       9      10       2       0       5       1
       2       2       2       3       2      12       6       4       5      13       1
       3       2       2       1       3       0       8       1       2       7       1
       2       2       3       2       3       7      11      15      15       9       1
       2       3       1       3       2      13       5      10      15       9       1
       3       3       2       1       3       7      15       8       1       5       1
       2       1       3       3       1      11      14       6       9      15       1
       3       2       2       3       1      12       7      11       9      11       1
       2       1       2       1       1      13       1       1       2      13       1
       2       2       1       1       2       9      14      10       1       7       1
       1       3       2       3       2      13      14      10      12       4       1
       3       2       2       2       2       4       6      11       9       9       1
       3       3       1       2       1       4      13      12      11       8       1
       2       2       3       1       3       0      15       0      10      15       1
       2       2       2       1       1       4       3      10      10      12       1
       2       1       2       2       2       5      12       9      12       2       1
       1       2       2       1       1       7       0       3       6      12       1
       2       3       3       1       3       5       2       9      12       9       1
       3       1       1       2       1       6       0      12       0       7       1
       1       2       3       3       3      13       6      12      13      13       1
       3       3       2       1       2       7       2       6      11       9       1
       2       3       1       2       2       6       0       8       4       4       1
       1       2       1       2       1       1       6       3      10      16       1
       3       1       3       3       3       6      15       7       3      12       1
       1       2       2       1       2       8       4      16       5       0       1
       1       2       1       1       2       6       3       9       3      16       1
       2       1       1       1       2       1       7      16      11      13       1
       1       3       1       2       2       1      16       5      12      14       1
       2       1       3       1       1      10      15      11       0       3       1
       2       3       1       2       1      13       2      15      16       1       1
       1       3       1       3       2      14      12      12       6      11       1
       1       2       2       2       2      14       3      16      14       1       1
       2       3       2       3       2      15      16       7      12       2       1
       3       2       3       1       2      14      10       0       1      15       1
       2       2       1       3       2      12       3       2       8       9       1
       1       3       2       3       3       6      10      16       0       3       1
       2       3       3       2       2      11       9       6      11       6       1
       3       3       1       1       1       5      16      15      14       7       1
       3       1       1       1       2      15      10      13      14       9       1
       3       3       3       3       1       9      11      14       7       9       1
       2       3       2       2       3       9       6       8       5       3       1
       1       2       1       1       3       8      16      12       6      13       1
       1       1       3       1       1      13       9       8       4      12       1
       1       1       3       3       2       2       1      15       5      10       1
       1       1       3       2       1       1      10       5       5       2       1
       1       2       1       3       3       1      12       3      13       7       1
       3       1       2       1       3       5       0       8       3       0       1
       3       3       3       3       1      14      10      13       4       1       1
       1       2       2       2       1       1      12       7      16       3       1
       2       3       2       3       2       2      13       5       9       3       1
       2       1       2       1       1      14      14       3      14      10       1
       2       3       1       2       3      13       0       0       7       8       1
       3       3       1       1       2      15      14       1      15       1       1
       3       2       3       1       1       0      13       8      16       1       1
       1       1       1       2       2      15       2       7       8       6       1
       1       2       3       3       2       0       4      10      13      14       1
       3       1       2       2       2       9       1       4       2      10       1
       3       1       1       1       2      13       2       6      16      14       1
       1       3       3       2       1      15       1       2       7      12       1
       2       2       2       2       1      13       0      11       2      16       1
       1       1       1       2       1       9       8       4       1       6       1
       1       1       1       3       3      12       0      15       2       8       1
       1       3       2       2       1       7      11       7      10       3       1
       3       2       3       3       3      13       2      12       8      10       1
       3       2       2       2       1      14       5       7       6       1       1
       3       3       2       1       3       0       0       5      10       0       1
       3       1       3       1       3       3      14       4      11       0       1
       3       3       2       2       2       6       4      16       4       7       1
       1       3       2       2       3       2      16      11       9      12       1
       2       2       2       3       2      14      12      15       6       0       1
       3       3       2       1       1       5       7      15      13      12       1
       2       1       3       3       1      14      13       4       6      16       1
       2       3       1       3       3      14       3       1       8       3       1
       2       2       1       1       1      11       7       4      10       1       1
       1       3       3       1       1       3       0       1       3       1       1
       2       1       3       3       1       4       9       3       6      12       1
       3       1       1       1       2      12       0      16      12       7       1
       2       3       1       1       3      16      12       7       2       5       1
       1       2       2       1       1       5       1       4      15      10       1
       2       1       3       3       1      12       2       8       9       1       1
       1       2       2       3       3       7       7       7       6       9       1
       2       2       2       3       1       3      14       5       4       6       1
       3       3       1       1       1      14      13      14       0       1       1
       2       2       1       2       3       1       9       5      15       3       1
       3       1       2       2       2      15       0      16       9       4       1
       1       2       3       1       1       7      14       7       1      10       1
       1       3       1       1       2       3       2       2      13       5       1
       2       1       2       1       2      14      16      15      12      14       1
       1       1       3       1       1      11       3       7       0      11       1
       1       1       3       2       2      14       6       9      13       1       1
       2       1       1       2       2       2      16       9       0       1       1
       3       1       2       3       1       5       5       3      13      13       1
       3       1       2       1       1       5       0       5       3      11       1
       1       3       2       1       3      16      13       1       3      15       1
       1       3       2       3       3      14       8      11      10       7       1
       3       1       2       2       3       2      14       9       0       8       1
       1       1       2       1       2      10       5      14       3      12       1
       1       2       1       3       1      16      11       0       4       2       1
       3       1       3       1       3       1       0       2      15       7       1
       3       2       1       3       2       0       8       7      12      13       1
       2       2       2       2       1       1       8       0       5       6       1
       1       3       1       3       2      13      16       6      15       2       1
       3       3       3       2       1       4       3      10       9      14       1
       3       3       1       1       3      16      10      15      10      14       1
       1       3       2       1       1       6       3      14      16      12       1
       1       1       2       1       3       0      14       3       7       0       1
       3       1       1       3       2      15       0      10      12      14       1
       3       3       1       3       1       9       9      13       6       6       1
       1       3       3       1       1       4       3       5      13      13       1
       3       1       2       2       2      15       3      11      16       1       1
       2       3       2       2       2      13       2      15       4       4       1
       2       3       1       3       1       2       7      12       2      12       1
      54      54      41      74      79
     132     155      85     150     149
     280     133     221     237     340