M+/results-log/S2-5-M+/S2-10-5-2-s-M+.log
CPXPARAM_Read_DataCheck                          1
Found incumbent of value 0.000000 after 0.00 sec. (0.03 ticks)
Tried aggregator 1 time.
MIP Presolve modified 1 coefficients.
Reduced MIP has 216 rows, 1005 columns, and 5020 nonzeros.
Reduced MIP has 1005 binaries, 0 generals, 0 SOSs, and 0 indicators.
Presolve time = 0.02 sec. (2.16 ticks)
Probing time = 0.00 sec. (1.53 ticks)
Tried aggregator 1 time.
Reduced MIP has 216 rows, 1005 columns, and 5020 nonzeros.
Reduced MIP has 1005 binaries, 0 generals, 0 SOSs, and 0 indicators.
Presolve time = 0.00 sec. (2.52 ticks)
Probing time = 0.00 sec. (1.53 ticks)
Clique table members: 1931.
MIP emphasis: balance optimality and feasibility.
MIP search method: dynamic search.
Parallel mode: deterministic, using up to 4 threads.
Root relaxation solution time = 0.01 sec. (2.78 ticks)

        Nodes                                         Cuts/
   Node  Left     Objective  IInf  Best Integer    Best Bound    ItCnt     Gap

*     0+    0                            0.0000     6283.0000              --- 
      0     0     1811.6647     5        0.0000     1811.6647      296     --- 
      0     0     1541.4032   265        0.0000     Cuts: 154      522     --- 
      0     0     1489.7982   280        0.0000      Cuts: 98      639     --- 
*     0+    0                         1267.0000     1489.7982            17.58%
*     0+    0                         1461.0000     1489.7982             1.97%
      0     0        cutoff           1461.0000     1461.0000      738    0.00%
Elapsed time = 0.14 sec. (121.04 ticks, tree = 0.01 MB, solutions = 3)

Clique cuts applied:  225
Cover cuts applied:  13
Mixed integer rounding cuts applied:  5
Zero-half cuts applied:  2

Root node processing (before b&c):
  Real time             =    0.14 sec. (121.12 ticks)
Parallel b&c, 4 threads:
  Real time             =    0.00 sec. (0.00 ticks)
  Sync time (average)   =    0.00 sec.
  Wait time (average)   =    0.00 sec.
                          ------------
Total (root+branch&cut) =    0.14 sec. (121.12 ticks)
